NAME: I15654-n29-k5
COMMENT : (Fake et al, No of trucks: 5, Optimal value: )
TYPE : CVRP
DIMENSION : 29
EDGE_WEIGHT_TYPE : EUC_2D
CAPACITY : 7
NODE_COORD_SECTION
1 152 32
2 789 669
3 356 949
4 249 213
5 2 438
6 638 880
7 137 620
8 8 123
9 936 770
10 763 438
11 283 209
12 153 4
13 958 148
14 331 489
15 414 37
16 314 278
17 859 935
18 421 748
19 192 958
20 161 805
21 701 739
22 878 449
23 367 626
24 330 570
25 318 20
26 544 862
27 778 72
28 0 607
29 685 313
DEMAND_SECTION
1 0
2 1
3 1
4 1
5 1
6 1
7 1
8 1
9 1
10 1
11 1
12 1
13 1
14 1
15 1
16 1
17 1
18 1
19 1
20 1
21 1
22 1
23 1
24 1
25 1
26 1
27 1
28 1
29 1
DEPOT_SECTION
 1
 -1
 EOF 